#######################################
### Exact MIP solver for the HHCRSP ###
#######################################
-- Instance file: new-instances/HHCRSP_400_80_13_1.0_R_R.txt
-- Max threads: 4
-- Time limit: 999999 seconds
-- Use initial solution: No
Trivial flow violations prevented generating 2853649 variables.
Version identifier: 20.1.0.0 | 2020-11-10 | 9bedb6d68
CPXPARAM_Threads                                 4
CPXPARAM_Emphasis_Memory                         1
CPXPARAM_TimeLimit                               999999
Tried aggregator 1 time.
Presolve has eliminated 85260 rows and 19348 columns...
LP Presolve eliminated 85260 rows and 19348 columns.
Reduced LP has 3071856 rows, 2905787 columns, and 90360608 nonzeros.
Presolve time = 94.60 sec. (19062.44 ticks)
Compression time = 22.39 sec. (5.80 ticks)
Compression reduced 1295.58 MB A matrix to 390.53 MB
Symmetry aggregator did 5243368 additional substitutions.
Elapsed time = 118.59 sec. (19875.38 ticks, 1 iterations)

Iteration log . . .
Iteration:     1   Dual objective     =             0.000000
Iteration:  1832   Dual objective     =           512.666667

Dual crossover.
  Dual:  Fixing 3079 variables.
     3078 DMoves:  Infeasibility  2.31942244e-12  Objective  5.13666667e+02
        0 DMoves:  Infeasibility  1.11569088e-12  Objective  5.13666667e+02
  Dual:  Pushed 77, exchanged 3002.
  Primal:  Fixing 2208 variables.
     2207 PMoves:  Infeasibility  0.00000000e+00  Objective  5.13666667e+02
        0 PMoves:  Infeasibility  0.00000000e+00  Objective  5.13666667e+02
  Primal:  Pushed 2000, exchanged 208.

Solution status from MIP model:
-- Processing time: 161.095 sec.
-- Memory used: 1996.24 MB
-- Best bound: inf
-- Obj value: 513.667
-- Gap: inf%
-- Total distance: 1541
-- Total tardiness: 0
-- Largest tardiness: 0
